GLPSOL--GLPK LP/MIP Solver 5.0
Parameter(s) specified in the command line:
 --lp ../modeles/2_364.lp --log 2_364.log
Reading problem data from '../modeles/2_364.lp'...
737 rows, 1460 columns, 5102 non-zeros
728 integer variables, all of which are binary
2205 lines were read
GLPK Integer Optimizer 5.0
737 rows, 1460 columns, 5102 non-zeros
728 integer variables, all of which are binary
Preprocessing...
724 constraint coefficient(s) were reduced
737 rows, 1458 columns, 5100 non-zeros
728 integer variables, all of which are binary
Scaling...
 A: min|aij| =  1.208e-04  max|aij| =  4.000e+00  ratio =  3.312e+04
GM: min|aij| =  7.412e-02  max|aij| =  1.349e+01  ratio =  1.820e+02
EQ: min|aij| =  5.495e-03  max|aij| =  1.000e+00  ratio =  1.820e+02
2N: min|aij| =  3.864e-03  max|aij| =  1.765e+00  ratio =  4.567e+02
Constructing initial basis...
Size of triangular part is 737
Solving LP relaxation...
GLPK Simplex Optimizer 5.0
737 rows, 1458 columns, 5100 non-zeros
      0: obj =   4.000000000e+00 inf =   9.500e+00 (5)
     45: obj =   4.708874900e-01 inf =   0.000e+00 (0)
*   168: obj =  -1.414174972e+00 inf =   2.776e-17 (0)
OPTIMAL LP SOLUTION FOUND
Integer optimization begins...
Long-step dual simplex will be used
+   168: mip =     not found yet >=              -inf        (1; 0)
+   590: >>>>>  -1.414174972e+00 >=  -1.414174972e+00   0.0% (422; 0)
+   590: mip =  -1.414174972e+00 >=     tree is empty   0.0% (0; 843)
INTEGER OPTIMAL SOLUTION FOUND
Time used:   0.4 secs
Memory used: 2.2 Mb (2282322 bytes)
